Welcome to the CBC MILP Solver 
Version: 2.8.9 
Build Date: Nov 24 2015 

command line - /vol/cc/opt/maxeler/maxcompiler-2015.2/bin/cbc maxpooling00_schedule_C.mps.gz -threads 4 -solve -printi csv -solu maxpooling00_schedule_C.csv (default strategy 1)
At line 1 NAME           CxSchedule
At line 2 ROWS
At line 821 COLUMNS
At line 1980 RHS
At line 2390 BOUNDS
At line 2866 ENDATA
Problem CxSchedule has 817 rows, 475 columns and 2040 elements
Coin0008I CxSchedule read with 0 errors
threads was changed from 0 to 4
Continuous objective value is 39370 - 0.01 seconds
Cgl0003I 0 fixed, 655 tightened bounds, 0 strengthened rows, 0 substitutions
Cgl0003I 0 fixed, 316 tightened bounds, 0 strengthened rows, 0 substitutions
Cgl0003I 0 fixed, 185 tightened bounds, 0 strengthened rows, 0 substitutions
Cgl0003I 0 fixed, 54 tightened bounds, 0 strengthened rows, 0 substitutions
Cgl0004I processed model has 817 rows, 471 columns (471 integer) and 2040 elements
Cutoff increment increased from 1e-05 to 0.9999
Cbc0012I Integer solution of 39370 found by DiveCoefficient after 0 iterations and 0 nodes (0.03 seconds)
Cbc0030I Thread 0 used 0 times,  waiting to start 0.0040872097, 0 cpu time, 0 locks, 0 locked, 0 waiting for locks
Cbc0030I Thread 1 used 0 times,  waiting to start 0.0034012794, 0 cpu time, 0 locks, 0 locked, 0 waiting for locks
Cbc0030I Thread 2 used 0 times,  waiting to start 0.0025451183, 0 cpu time, 0 locks, 0 locked, 0 waiting for locks
Cbc0030I Thread 3 used 0 times,  waiting to start 0.0016992092, 0 cpu time, 0 locks, 0 locked, 0 waiting for locks
Cbc0030I Main thread 0 waiting for threads,  1 locks, 5.9604645e-06 locked, 2.3841858e-07 waiting for locks
Cbc0001I Search completed - best objective 39370, took 0 iterations and 0 nodes (0.03 seconds)
Cbc0035I Maximum depth 0, 0 variables fixed on reduced cost
Cuts at root node changed objective from 39370 to 39370
Probing was tried 0 times and created 0 cuts of which 0 were active after adding rounds of cuts (0.000 seconds)
Gomory was tried 0 times and created 0 cuts of which 0 were active after adding rounds of cuts (0.000 seconds)
Knapsack was tried 0 times and created 0 cuts of which 0 were active after adding rounds of cuts (0.000 seconds)
Clique was tried 0 times and created 0 cuts of which 0 were active after adding rounds of cuts (0.000 seconds)
MixedIntegerRounding2 was tried 0 times and created 0 cuts of which 0 were active after adding rounds of cuts (0.000 seconds)
FlowCover was tried 0 times and created 0 cuts of which 0 were active after adding rounds of cuts (0.000 seconds)
TwoMirCuts was tried 0 times and created 0 cuts of which 0 were active after adding rounds of cuts (0.000 seconds)

Result - Optimal solution found

Objective value:                39370.00000000
Enumerated nodes:               0
Total iterations:               0
Time (CPU seconds):             0.05
Time (Wallclock seconds):       0.05

Option for printingOptions changed from normal to csv
Total time (CPU seconds):       0.05   (Wallclock seconds):       0.06

